100 8
261 575
751 398
799 698
68 349
245 290
447 167
54 376
153 903
746 411
126 479
263 979
410 743
316 889
65 374
434 888
280 958
520 584
558 613
205 949
59 306
515 649
249 488
318 479
647 537
787 763
261 831
173 674
319 861
601 622
551 209
359 561
99 680
786 610
763 512
737 517
656 501
832 625
817 595
877 385
261 942
357 397
186 530
902 626
746 553
270 497
714 523
555 740
824 604
156 528
193 319
195 831
264 467
710 385
792 523
735 739
240 358
633 200
263 567
894 729
275 606
641 596
625 360
146 418
426 569
184 700
404 104
256 512
247 903
775 767
128 205
557 876
295 915
110 523
911 406
741 553
644 427
723 690
134 654
572 738
335 451
757 254
272 400
78 662
890 510
28 219
401 192
253 584
359 542
221 363
376 557
386 819
154 385
157 421
168 320
610 345
344 444
679 418
228 478
344 571
467 874
